p edge 134 1643
e 1 2
e 1 3
e 1 4
e 1 5
e 1 6
e 1 7
e 1 8
e 1 9
e 1 10
e 1 11
e 1 12
e 1 13
e 1 14
e 1 15
e 1 16
e 1 17
e 1 18
e 1 19
e 1 20
e 1 21
e 1 22
e 1 23
e 1 24
e 1 25
e 1 26
e 1 27
e 1 28
e 1 29
e 1 30
e 1 31
e 1 32
e 1 33
e 1 34
e 1 35
e 1 36
e 1 37
e 1 38
e 1 39
e 1 40
e 1 41
e 1 42
e 1 43
e 1 44
e 1 45
e 1 46
e 1 47
e 1 48
e 1 50
e 1 51
e 1 52
e 1 57
e 1 59
e 1 60
e 1 65
e 1 67
e 1 68
e 1 69
e 1 74
e 1 76
e 1 77
e 1 78
e 1 83
e 1 85
e 1 86
e 1 91
e 1 93
e 1 94
e 1 95
e 1 100
e 1 102
e 1 103
e 1 108
e 1 110
e 1 111
e 1 112
e 1 113
e 1 114
e 1 115
e 1 122
e 1 124
e 1 126
e 1 127
e 1 128
e 1 129
e 1 130
e 1 131
e 1 132
e 1 133
e 1 134
e 2 47
e 2 48
e 2 50
e 2 51
e 2 52
e 2 60
e 2 68
e 2 69
e 2 77
e 2 78
e 2 86
e 2 94
e 2 95
e 2 103
e 2 111
e 2 112
e 2 113
e 2 114
e 2 115
e 3 26
e 3 47
e 3 48
e 3 50
e 3 51
e 3 52
e 3 60
e 3 68
e 3 69
e 3 77
e 3 78
e 3 86
e 3 94
e 3 95
e 3 103
e 3 111
e 3 112
e 3 113
e 3 114
e 3 115
e 4 134
e 5 47
e 5 48
e 5 50
e 5 51
e 5 52
e 5 60
e 5 68
e 5 69
e 5 77
e 5 78
e 5 86
e 5 94
e 5 95
e 5 103
e 5 111
e 5 112
e 5 113
e 5 114
e 5 115
e 5 126
e 6 47
e 6 48
e 6 50
e 6 51
e 6 52
e 6 57
e 6 60
e 6 68
e 6 69
e 6 77
e 6 78
e 6 86
e 6 94
e 6 95
e 6 103
e 6 111
e 6 112
e 6 113
e 6 114
e 6 115
e 7 8
e 7 47
e 7 48
e 7 50
e 7 51
e 7 52
e 7 59
e 7 60
e 7 68
e 7 69
e 7 77
e 7 78
e 7 86
e 7 94
e 7 95
e 7 103
e 7 111
e 7 112
e 7 113
e 7 114
e 7 115
e 8 47
e 8 48
e 8 50
e 8 51
e 8 52
e 8 59
e 8 60
e 8 68
e 8 69
e 8 77
e 8 78
e 8 86
e 8 94
e 8 95
e 8 103
e 8 111
e 8 112
e 8 113
e 8 114
e 8 115
e 9 10
e 9 47
e 9 48
e 9 50
e 9 51
e 9 52
e 9 60
e 9 68
e 9 69
e 9 77
e 9 78
e 9 86
e 9 94
e 9 95
e 9 103
e 9 111
e 9 112
e 9 113
e 9 114
e 9 115
e 10 47
e 10 48
e 10 50
e 10 51
e 10 52
e 10 60
e 10 68
e 10 69
e 10 77
e 10 78
e 10 86
e 10 94
e 10 95
e 10 103
e 10 111
e 10 112
e 10 113
e 10 114
e 10 115
e 11 47
e 11 48
e 11 50
e 11 51
e 11 52
e 11 60
e 11 68
e 11 69
e 11 77
e 11 78
e 11 86
e 11 94
e 11 95
e 11 103
e 11 111
e 11 112
e 11 113
e 11 114
e 11 115
e 11 127
e 12 47
e 12 48
e 12 50
e 12 51
e 12 52
e 12 60
e 12 65
e 12 68
e 12 69
e 12 77
e 12 78
e 12 86
e 12 94
e 12 95
e 12 103
e 12 111
e 12 112
e 12 113
e 12 114
e 12 115
e 13 14
e 13 47
e 13 48
e 13 50
e 13 51
e 13 52
e 13 60
e 13 67
e 13 68
e 13 69
e 13 77
e 13 78
e 13 86
e 13 94
e 13 95
e 13 103
e 13 111
e 13 112
e 13 113
e 13 114
e 13 115
e 14 47
e 14 48
e 14 50
e 14 51
e 14 52
e 14 60
e 14 67
e 14 68
e 14 69
e 14 77
e 14 78
e 14 86
e 14 94
e 14 95
e 14 103
e 14 111
e 14 112
e 14 113
e 14 114
e 14 115
e 15 47
e 15 48
e 15 50
e 15 51
e 15 52
e 15 60
e 15 68
e 15 69
e 15 77
e 15 78
e 15 86
e 15 94
e 15 95
e 15 103
e 15 111
e 15 112
e 15 113
e 15 114
e 15 115
e 16 47
e 16 48
e 16 50
e 16 51
e 16 52
e 16 60
e 16 68
e 16 69
e 16 77
e 16 78
e 16 86
e 16 94
e 16 95
e 16 103
e 16 111
e 16 112
e 16 113
e 16 114
e 16 115
e 16 128
e 17 47
e 17 48
e 17 50
e 17 51
e 17 52
e 17 60
e 17 68
e 17 69
e 17 74
e 17 77
e 17 78
e 17 86
e 17 94
e 17 95
e 17 103
e 17 111
e 17 112
e 17 113
e 17 114
e 17 115
e 18 19
e 18 47
e 18 48
e 18 50
e 18 51
e 18 52
e 18 60
e 18 68
e 18 69
e 18 76
e 18 77
e 18 78
e 18 86
e 18 94
e 18 95
e 18 103
e 18 111
e 18 112
e 18 113
e 18 114
e 18 115
e 19 47
e 19 48
e 19 50
e 19 51
e 19 52
e 19 60
e 19 68
e 19 69
e 19 76
e 19 77
e 19 78
e 19 86
e 19 94
e 19 95
e 19 103
e 19 111
e 19 112
e 19 113
e 19 114
e 19 115
e 20 21
e 20 47
e 20 48
e 20 50
e 20 51
e 20 52
e 20 60
e 20 68
e 20 69
e 20 77
e 20 78
e 20 86
e 20 94
e 20 95
e 20 103
e 20 111
e 20 112
e 20 113
e 20 114
e 20 115
e 21 47
e 21 48
e 21 50
e 21 51
e 21 52
e 21 60
e 21 68
e 21 69
e 21 77
e 21 78
e 21 86
e 21 94
e 21 95
e 21 103
e 21 111
e 21 112
e 21 113
e 21 114
e 21 115
e 22 47
e 22 48
e 22 50
e 22 51
e 22 52
e 22 60
e 22 68
e 22 69
e 22 77
e 22 78
e 22 86
e 22 94
e 22 95
e 22 103
e 22 111
e 22 112
e 22 113
e 22 114
e 22 115
e 22 129
e 23 47
e 23 48
e 23 50
e 23 51
e 23 52
e 23 60
e 23 68
e 23 69
e 23 77
e 23 78
e 23 83
e 23 86
e 23 94
e 23 95
e 23 103
e 23 111
e 23 112
e 23 113
e 23 114
e 23 115
e 24 25
e 24 47
e 24 48
e 24 50
e 24 51
e 24 52
e 24 60
e 24 68
e 24 69
e 24 77
e 24 78
e 24 85
e 24 86
e 24 94
e 24 95
e 24 103
e 24 111
e 24 112
e 24 113
e 24 114
e 24 115
e 25 47
e 25 48
e 25 50
e 25 51
e 25 52
e 25 60
e 25 68
e 25 69
e 25 77
e 25 78
e 25 85
e 25 86
e 25 94
e 25 95
e 25 103
e 25 111
e 25 112
e 25 113
e 25 114
e 25 115
e 26 27
e 26 28
e 26 29
e 26 30
e 26 31
e 26 47
e 26 48
e 26 50
e 26 51
e 26 52
e 26 60
e 26 68
e 26 69
e 26 77
e 26 78
e 26 86
e 26 91
e 26 93
e 26 94
e 26 95
e 26 103
e 26 111
e 26 112
e 26 113
e 26 114
e 26 115
e 26 130
e 27 47
e 27 48
e 27 50
e 27 51
e 27 52
e 27 60
e 27 68
e 27 69
e 27 77
e 27 78
e 27 86
e 27 94
e 27 95
e 27 103
e 27 111
e 27 112
e 27 113
e 27 114
e 27 115
e 27 130
e 28 47
e 28 48
e 28 50
e 28 51
e 28 52
e 28 60
e 28 68
e 28 69
e 28 77
e 28 78
e 28 86
e 28 91
e 28 94
e 28 95
e 28 103
e 28 111
e 28 112
e 28 113
e 28 114
e 28 115
e 29 30
e 29 47
e 29 48
e 29 50
e 29 51
e 29 52
e 29 60
e 29 68
e 29 69
e 29 77
e 29 78
e 29 86
e 29 93
e 29 94
e 29 95
e 29 103
e 29 111
e 29 112
e 29 113
e 29 114
e 29 115
e 30 47
e 30 48
e 30 50
e 30 51
e 30 52
e 30 60
e 30 68
e 30 69
e 30 77
e 30 78
e 30 86
e 30 93
e 30 94
e 30 95
e 30 103
e 30 111
e 30 112
e 30 113
e 30 114
e 30 115
e 31 47
e 31 48
e 31 50
e 31 51
e 31 52
e 31 60
e 31 68
e 31 69
e 31 77
e 31 78
e 31 86
e 31 94
e 31 95
e 31 103
e 31 111
e 31 112
e 31 113
e 31 114
e 31 115
e 32 47
e 32 48
e 32 50
e 32 51
e 32 52
e 32 60
e 32 68
e 32 69
e 32 77
e 32 78
e 32 86
e 32 94
e 32 95
e 32 103
e 32 111
e 32 112
e 32 113
e 32 114
e 32 115
e 32 131
e 33 47
e 33 48
e 33 50
e 33 51
e 33 52
e 33 60
e 33 68
e 33 69
e 33 77
e 33 78
e 33 86
e 33 94
e 33 95
e 33 100
e 33 103
e 33 111
e 33 112
e 33 113
e 33 114
e 33 115
e 34 35
e 34 47
e 34 48
e 34 50
e 34 51
e 34 52
e 34 60
e 34 68
e 34 69
e 34 77
e 34 78
e 34 86
e 34 94
e 34 95
e 34 102
e 34 103
e 34 111
e 34 112
e 34 113
e 34 114
e 34 115
e 35 47
e 35 48
e 35 50
e 35 51
e 35 52
e 35 60
e 35 68
e 35 69
e 35 77
e 35 78
e 35 86
e 35 94
e 35 95
e 35 102
e 35 103
e 35 111
e 35 112
e 35 113
e 35 114
e 35 115
e 36 37
e 36 38
e 36 39
e 36 40
e 36 41
e 36 42
e 36 47
e 36 48
e 36 50
e 36 51
e 36 52
e 36 60
e 36 68
e 36 69
e 36 77
e 36 78
e 36 86
e 36 94
e 36 95
e 36 103
e 36 108
e 36 110
e 36 111
e 36 112
e 36 113
e 36 114
e 36 115
e 36 132
e 37 47
e 37 48
e 37 50
e 37 51
e 37 52
e 37 60
e 37 68
e 37 69
e 37 77
e 37 78
e 37 86
e 37 94
e 37 95
e 37 103
e 37 111
e 37 112
e 37 113
e 37 114
e 37 115
e 38 47
e 38 48
e 38 50
e 38 51
e 38 52
e 38 60
e 38 68
e 38 69
e 38 77
e 38 78
e 38 86
e 38 94
e 38 95
e 38 103
e 38 111
e 38 112
e 38 113
e 38 114
e 38 115
e 38 132
e 39 47
e 39 48
e 39 50
e 39 51
e 39 52
e 39 60
e 39 68
e 39 69
e 39 77
e 39 78
e 39 86
e 39 94
e 39 95
e 39 103
e 39 108
e 39 111
e 39 112
e 39 113
e 39 114
e 39 115
e 40 41
e 40 47
e 40 48
e 40 50
e 40 51
e 40 52
e 40 60
e 40 68
e 40 69
e 40 77
e 40 78
e 40 86
e 40 94
e 40 95
e 40 103
e 40 110
e 40 111
e 40 112
e 40 113
e 40 114
e 40 115
e 41 47
e 41 48
e 41 50
e 41 51
e 41 52
e 41 60
e 41 68
e 41 69
e 41 77
e 41 78
e 41 86
e 41 94
e 41 95
e 41 103
e 41 110
e 41 111
e 41 112
e 41 113
e 41 114
e 41 115
e 42 47
e 42 48
e 42 50
e 42 51
e 42 52
e 42 60
e 42 68
e 42 69
e 42 77
e 42 78
e 42 86
e 42 94
e 42 95
e 42 103
e 42 111
e 42 112
e 42 113
e 42 114
e 42 115
e 43 47
e 43 48
e 43 50
e 43 51
e 43 52
e 43 60
e 43 68
e 43 69
e 43 77
e 43 78
e 43 86
e 43 94
e 43 95
e 43 103
e 43 111
e 43 112
e 43 113
e 43 114
e 43 115
e 43 133
e 44 47
e 44 48
e 44 50
e 44 51
e 44 52
e 44 60
e 44 68
e 44 69
e 44 77
e 44 78
e 44 86
e 44 94
e 44 95
e 44 103
e 44 111
e 44 112
e 44 113
e 44 114
e 44 115
e 44 122
e 45 46
e 45 47
e 45 48
e 45 50
e 45 51
e 45 52
e 45 60
e 45 68
e 45 69
e 45 77
e 45 78
e 45 86
e 45 94
e 45 95
e 45 103
e 45 111
e 45 112
e 45 113
e 45 114
e 45 115
e 45 124
e 46 47
e 46 48
e 46 50
e 46 51
e 46 52
e 46 60
e 46 68
e 46 69
e 46 77
e 46 78
e 46 86
e 46 94
e 46 95
e 46 103
e 46 111
e 46 112
e 46 113
e 46 114
e 46 115
e 46 124
e 47 48
e 47 49
e 47 50
e 47 51
e 47 52
e 47 57
e 47 59
e 47 60
e 47 65
e 47 67
e 47 68
e 47 69
e 47 74
e 47 76
e 47 77
e 47 78
e 47 83
e 47 85
e 47 86
e 47 91
e 47 93
e 47 94
e 47 95
e 47 100
e 47 102
e 47 103
e 47 108
e 47 110
e 47 111
e 47 112
e 47 113
e 47 114
e 47 115
e 47 122
e 47 124
e 47 125
e 47 126
e 47 127
e 47 128
e 47 129
e 47 130
e 47 131
e 47 132
e 47 133
e 48 49
e 48 50
e 48 51
e 48 52
e 48 57
e 48 59
e 48 60
e 48 65
e 48 67
e 48 68
e 48 69
e 48 74
e 48 76
e 48 77
e 48 78
e 48 83
e 48 85
e 48 86
e 48 91
e 48 93
e 48 94
e 48 95
e 48 100
e 48 102
e 48 103
e 48 108
e 48 110
e 48 111
e 48 112
e 48 113
e 48 114
e 48 115
e 48 122
e 48 124
e 48 126
e 48 127
e 48 128
e 48 129
e 48 130
e 48 131
e 48 132
e 48 133
e 49 50
e 50 51
e 50 52
e 50 57
e 50 59
e 50 60
e 50 65
e 50 67
e 50 68
e 50 69
e 50 74
e 50 76
e 50 77
e 50 78
e 50 83
e 50 85
e 50 86
e 50 91
e 50 93
e 50 94
e 50 95
e 50 100
e 50 102
e 50 103
e 50 108
e 50 110
e 50 111
e 50 112
e 50 113
e 50 114
e 50 115
e 50 122
e 50 124
e 50 126
e 50 127
e 50 128
e 50 129
e 50 130
e 50 131
e 50 132
e 50 133
e 51 52
e 51 57
e 51 59
e 51 60
e 51 65
e 51 67
e 51 68
e 51 69
e 51 74
e 51 76
e 51 77
e 51 78
e 51 83
e 51 85
e 51 86
e 51 91
e 51 93
e 51 94
e 51 95
e 51 100
e 51 102
e 51 103
e 51 108
e 51 110
e 51 111
e 51 112
e 51 113
e 51 114
e 51 115
e 51 122
e 51 124
e 51 126
e 51 127
e 51 128
e 51 129
e 51 130
e 51 131
e 51 132
e 51 133
e 52 57
e 52 59
e 52 60
e 52 65
e 52 67
e 52 68
e 52 69
e 52 74
e 52 76
e 52 77
e 52 78
e 52 83
e 52 85
e 52 86
e 52 91
e 52 93
e 52 94
e 52 95
e 52 100
e 52 102
e 52 103
e 52 108
e 52 110
e 52 111
e 52 112
e 52 113
e 52 114
e 52 115
e 52 122
e 52 124
e 52 126
e 52 127
e 52 128
e 52 129
e 52 130
e 52 131
e 52 132
e 52 133
e 53 134
e 54 134
e 55 134
e 57 60
e 57 68
e 57 69
e 57 77
e 57 78
e 57 86
e 57 94
e 57 95
e 57 103
e 57 111
e 57 112
e 57 113
e 57 114
e 57 115
e 59 60
e 59 68
e 59 69
e 59 77
e 59 78
e 59 86
e 59 94
e 59 95
e 59 103
e 59 111
e 59 112
e 59 113
e 59 114
e 59 115
e 60 65
e 60 67
e 60 68
e 60 69
e 60 74
e 60 76
e 60 77
e 60 78
e 60 83
e 60 85
e 60 86
e 60 91
e 60 93
e 60 94
e 60 95
e 60 100
e 60 102
e 60 103
e 60 108
e 60 110
e 60 111
e 60 112
e 60 113
e 60 114
e 60 115
e 60 122
e 60 124
e 60 126
e 60 127
e 60 128
e 60 129
e 60 130
e 60 131
e 60 132
e 60 133
e 61 134
e 62 134
e 63 134
e 65 68
e 65 69
e 65 77
e 65 78
e 65 86
e 65 94
e 65 95
e 65 103
e 65 111
e 65 112
e 65 113
e 65 114
e 65 115
e 67 68
e 67 69
e 67 77
e 67 78
e 67 86
e 67 94
e 67 95
e 67 103
e 67 111
e 67 112
e 67 113
e 67 114
e 67 115
e 68 69
e 68 74
e 68 76
e 68 77
e 68 78
e 68 83
e 68 85
e 68 86
e 68 91
e 68 93
e 68 94
e 68 95
e 68 100
e 68 102
e 68 103
e 68 108
e 68 110
e 68 111
e 68 112
e 68 113
e 68 114
e 68 115
e 68 122
e 68 124
e 68 126
e 68 127
e 68 128
e 68 129
e 68 130
e 68 131
e 68 132
e 68 133
e 69 74
e 69 76
e 69 77
e 69 78
e 69 83
e 69 85
e 69 86
e 69 91
e 69 93
e 69 94
e 69 95
e 69 100
e 69 102
e 69 103
e 69 108
e 69 110
e 69 111
e 69 112
e 69 113
e 69 114
e 69 115
e 69 122
e 69 124
e 69 126
e 69 127
e 69 128
e 69 129
e 69 130
e 69 131
e 69 132
e 69 133
e 70 134
e 71 134
e 72 134
e 74 77
e 74 78
e 74 86
e 74 94
e 74 95
e 74 103
e 74 111
e 74 112
e 74 113
e 74 114
e 74 115
e 76 77
e 76 78
e 76 86
e 76 94
e 76 95
e 76 103
e 76 111
e 76 112
e 76 113
e 76 114
e 76 115
e 77 78
e 77 83
e 77 85
e 77 86
e 77 91
e 77 93
e 77 94
e 77 95
e 77 100
e 77 102
e 77 103
e 77 108
e 77 110
e 77 111
e 77 112
e 77 113
e 77 114
e 77 115
e 77 122
e 77 124
e 77 126
e 77 127
e 77 128
e 77 129
e 77 130
e 77 131
e 77 132
e 77 133
e 78 83
e 78 85
e 78 86
e 78 91
e 78 93
e 78 94
e 78 95
e 78 100
e 78 102
e 78 103
e 78 108
e 78 110
e 78 111
e 78 112
e 78 113
e 78 114
e 78 115
e 78 122
e 78 124
e 78 126
e 78 127
e 78 128
e 78 129
e 78 130
e 78 131
e 78 132
e 78 133
e 79 134
e 80 134
e 81 134
e 83 86
e 83 94
e 83 95
e 83 103
e 83 111
e 83 112
e 83 113
e 83 114
e 83 115
e 85 86
e 85 94
e 85 95
e 85 103
e 85 111
e 85 112
e 85 113
e 85 114
e 85 115
e 86 91
e 86 93
e 86 94
e 86 95
e 86 100
e 86 102
e 86 103
e 86 108
e 86 110
e 86 111
e 86 112
e 86 113
e 86 114
e 86 115
e 86 122
e 86 124
e 86 126
e 86 127
e 86 128
e 86 129
e 86 130
e 86 131
e 86 132
e 86 133
e 87 134
e 88 134
e 89 134
e 91 94
e 91 95
e 91 103
e 91 111
e 91 112
e 91 113
e 91 114
e 91 115
e 93 94
e 93 95
e 93 103
e 93 111
e 93 112
e 93 113
e 93 114
e 93 115
e 94 95
e 94 100
e 94 102
e 94 103
e 94 108
e 94 110
e 94 111
e 94 112
e 94 113
e 94 114
e 94 115
e 94 122
e 94 124
e 94 126
e 94 127
e 94 128
e 94 129
e 94 130
e 94 131
e 94 132
e 94 133
e 95 100
e 95 102
e 95 103
e 95 108
e 95 110
e 95 111
e 95 112
e 95 113
e 95 114
e 95 115
e 95 122
e 95 124
e 95 126
e 95 127
e 95 128
e 95 129
e 95 130
e 95 131
e 95 132
e 95 133
e 96 134
e 97 134
e 98 134
e 100 103
e 100 111
e 100 112
e 100 113
e 100 114
e 100 115
e 102 103
e 102 111
e 102 112
e 102 113
e 102 114
e 102 115
e 103 108
e 103 110
e 103 111
e 103 112
e 103 113
e 103 114
e 103 115
e 103 122
e 103 124
e 103 126
e 103 127
e 103 128
e 103 129
e 103 130
e 103 131
e 103 132
e 103 133
e 104 134
e 105 134
e 106 134
e 108 111
e 108 112
e 108 113
e 108 114
e 108 115
e 110 111
e 110 112
e 110 113
e 110 114
e 110 115
e 111 112
e 111 113
e 111 114
e 111 115
e 111 122
e 111 124
e 111 126
e 111 127
e 111 128
e 111 129
e 111 130
e 111 131
e 111 132
e 111 133
e 112 113
e 112 114
e 112 115
e 112 122
e 112 124
e 112 126
e 112 127
e 112 128
e 112 129
e 112 130
e 112 131
e 112 132
e 112 133
e 113 114
e 113 115
e 113 122
e 113 124
e 113 126
e 113 127
e 113 128
e 113 129
e 113 130
e 113 131
e 113 132
e 113 133
e 114 115
e 114 122
e 114 124
e 114 126
e 114 127
e 114 128
e 114 129
e 114 130
e 114 131
e 114 132
e 114 133
e 115 122
e 115 124
e 115 126
e 115 127
e 115 128
e 115 129
e 115 130
e 115 131
e 115 132
e 115 133
e 116 134
e 117 134
e 118 134
e 119 134
e 120 134
